c colouring generated by benchmark framework
p edge 23 71
v 1 3
v 2 4
v 3 0
v 4 2
v 5 1
v 6 1
v 7 1
v 8 2
v 9 2
v 10 1
v 11 0
v 12 0
v 13 4
v 14 0
v 15 0
v 16 1
v 17 3
v 18 1
v 19 3
v 20 4
v 21 4
v 22 4
v 23 2
